sat
(model
  (define-fun |zip$unknown:3|
    ( (v_0 Int) (v_1 Int) (v_2 Int) ) Bool
    (or (= (+ v_0 (* (- 1) v_2)) 0) (not (= (+ v_2 (* (- 1) v_1)) 0)))
  )
  (define-fun |zip$unknown:2|
    ( (v_0 Int) (v_1 Int) ) Bool
    (and (= (+ v_1 (* (- 1) v_0)) 0) (or (= v_1 0) (not (= v_0 0))) (or (= v_0 0) (not (= v_1 0))))
  )
)
